(set-info :source |printed by MathSAT|)
(declare-fun |.x{95}| () Int)
(declare-fun |.y{8}| () Int)
(declare-fun |.y{7}| () Int)
(declare-fun |.x{96}| () (Array Int Int))
(declare-fun |.x{111}| () (Array Int Int))
(declare-fun |.x{97}| () (Array Int Int))
(declare-fun |.y{10}| () (Array Int Int))
(declare-fun |.x{98}| () Int)
(declare-fun |.x{112}| () Int)
(declare-fun |.x{99}| () Int)
(declare-fun |.x{113}| () Int)
(declare-fun |.x{100}| () Int)
(declare-fun |.x{110}| () Int)
(declare-fun |.x{101}| () Int)
(declare-fun |.y{11}| () Int)
(declare-fun |.x{102}| () Int)
(declare-fun |.y{12}| () Int)
(declare-fun |.x{103}| () Int)
(declare-fun |.y{13}| () Int)
(declare-fun |.loc{3}| () Bool)
(declare-fun |.loc{5}| () Bool)
(declare-fun |.loc{4}| () Bool)
(declare-fun |.loc{6}| () Bool)
(declare-fun |.x{68}| () (Array Int Int))
(declare-fun |.x{58}| () Bool)
(declare-fun |.x{54}| () Bool)
(declare-fun |.x{53}| () Bool)
(declare-fun |.x{69}| () Int)
(declare-fun |.x{121}| () Int)
(declare-fun |.x{70}| () Int)
(declare-fun |.x{71}| () (Array Int Int))
(declare-fun |.x{62}| () Bool)
(declare-fun |.x{67}| () (Array Int Int))
(declare-fun |.x{60}| () (Array Int Int))
(declare-fun |.x{72}| () (Array Int Int))
(declare-fun |.x{56}| () Bool)
(declare-fun |.x{73}| () Int)
(declare-fun |.x{59}| () Int)
(declare-fun |.x{61}| () Int)
(declare-fun |.x{74}| () Int)
(declare-fun |.x{64}| () (Array Int Int))
(declare-fun |.x{65}| () Int)
(declare-fun |.x{57}| () Int)
(declare-fun |.x{63}| () Int)
(declare-fun |.x{139}| () Int)
(define-fun .def_28 () Bool (! |.loc{3}| :next |.loc{5}|))
(define-fun .def_232 () Bool (not .def_28))
(define-fun .def_30 () Bool (! |.loc{4}| :next |.loc{6}|))
(define-fun .def_150 () Bool (not .def_30))
(define-fun .def_284 () Bool (! (and .def_150 .def_232) :init true))
(define-fun .def_280 () Bool (not |.loc{5}|))
(define-fun .def_16 () Int (! |.x{98}| :next |.x{112}|))
(define-fun .def_277 () Bool (= .def_16 |.x{112}|))
(define-fun .def_20 () Int (! |.x{100}| :next |.x{110}|))
(define-fun .def_272 () Bool (= |.x{113}| .def_20))
(define-fun .def_14 () (Array Int Int) (! |.x{97}| :next |.y{10}|))
(define-fun .def_270 () Bool (= |.x{111}| .def_14))
(define-fun .def_268 () Bool (= |.x{110}| 0))
(define-fun .def_267 () Bool (and .def_28 .def_150))
(define-fun .def_269 () Bool (and .def_267 .def_268))
(define-fun .def_271 () Bool (and .def_269 .def_270))
(define-fun .def_273 () Bool (and .def_271 .def_272))
(define-fun .def_274 () Bool (and .def_272 .def_273))
(define-fun .def_8 () Int (! |.x{95}| :next |.y{8}|))
(define-fun .def_26 () Int (! |.x{103}| :next |.y{13}|))
(define-fun .def_38 () Int (* 16777216 .def_26))
(define-fun .def_40 () Real (* (/ 1 16777216) (to_real .def_38)))
(define-fun .def_41 () Int (to_int .def_40))
(define-fun .def_42 () Bool (<= .def_41 .def_8))
(define-fun .def_275 () Bool (and .def_42 .def_274))
(define-fun .def_18 () Int (! |.x{99}| :next |.x{113}|))
(define-fun .def_260 () Bool (<= .def_18 0))
(define-fun .def_265 () Bool (not .def_260))
(define-fun .def_261 () Bool (<= |.x{121}| 0))
(define-fun .def_262 () Bool (not .def_261))
(define-fun .def_263 () Bool (or .def_260 .def_262))
(define-fun .def_255 () Int (* (- 1) |.x{121}|))
(define-fun .def_256 () Int (+ .def_20 .def_255))
(define-fun .def_257 () Int (+ .def_18 .def_256))
(define-fun .def_258 () Bool (= .def_257 0))
(define-fun .def_252 () Bool (<= .def_16 .def_20))
(define-fun .def_253 () Bool (not .def_252))
(define-fun .def_12 () (Array Int Int) (! |.x{96}| :next |.x{111}|))
(define-fun .def_248 () Int (select .def_12 |.x{121}|))
(define-fun .def_249 () Bool (<= .def_248 (- 1)))
(define-fun .def_250 () Bool (not .def_249))
(define-fun .def_244 () Bool (= .def_18 |.x{113}|))
(define-fun .def_240 () Int (* (- 1) |.x{110}|))
(define-fun .def_241 () Int (+ .def_20 .def_240))
(define-fun .def_242 () Bool (= .def_241 (- 1)))
(define-fun .def_239 () Bool (= .def_12 |.x{111}|))
(define-fun .def_243 () Bool (and .def_239 .def_242))
(define-fun .def_245 () Bool (and .def_243 .def_244))
(define-fun .def_246 () Bool (and .def_232 .def_245))
(define-fun .def_247 () Bool (and .def_30 .def_246))
(define-fun .def_251 () Bool (and .def_247 .def_250))
(define-fun .def_254 () Bool (and .def_251 .def_253))
(define-fun .def_259 () Bool (and .def_254 .def_258))
(define-fun .def_264 () Bool (and .def_259 .def_263))
(define-fun .def_266 () Bool (and .def_264 .def_265))
(define-fun .def_276 () Bool (or .def_266 .def_275))
(define-fun .def_278 () Bool (and .def_276 .def_277))
(define-fun .def_279 () Bool (and |.loc{6}| .def_278))
(define-fun .def_281 () Bool (and .def_279 .def_280))
(define-fun .def_234 () Bool (= .def_8 |.y{12}|))
(define-fun .def_230 () Bool (= |.x{113}| 0))
(define-fun .def_228 () Bool (= |.y{8}| 0))
(define-fun .def_225 () Bool (<= |.y{11}| 0))
(define-fun .def_226 () Bool (not .def_225))
(define-fun .def_222 () Bool (<= |.x{110}| 0))
(define-fun .def_223 () Bool (not .def_222))
(define-fun .def_220 () Bool (= |.x{112}| 0))
(define-fun .def_218 () Bool (<= |.y{13}| 0))
(define-fun .def_219 () Bool (not .def_218))
(define-fun .def_221 () Bool (and .def_219 .def_220))
(define-fun .def_224 () Bool (and .def_221 .def_223))
(define-fun .def_227 () Bool (and .def_224 .def_226))
(define-fun .def_229 () Bool (and .def_227 .def_228))
(define-fun .def_231 () Bool (and .def_229 .def_230))
(define-fun .def_233 () Bool (and .def_231 .def_232))
(define-fun .def_235 () Bool (and .def_233 .def_234))
(define-fun .def_236 () Bool (and .def_150 .def_235))
(define-fun .def_237 () Bool (and |.loc{5}| .def_236))
(define-fun .def_124 () Bool (not |.loc{6}|))
(define-fun .def_238 () Bool (and .def_124 .def_237))
(define-fun .def_282 () Bool (or .def_238 .def_281))
(define-fun .def_215 () Bool (= .def_14 |.x{68}|))
(define-fun .def_35 () Bool (not |.x{58}|))
(define-fun .def_216 () Bool (or .def_35 .def_215))
(define-fun .def_212 () Bool (= .def_16 |.x{69}|))
(define-fun .def_213 () Bool (or .def_35 .def_212))
(define-fun .def_209 () Bool (not |.x{56}|))
(define-fun .def_202 () Bool (and |.x{58}| |.x{53}|))
(define-fun .def_208 () Bool (not .def_202))
(define-fun .def_210 () Bool (or .def_208 .def_209))
(define-fun .def_205 () Bool (= .def_12 |.x{71}|))
(define-fun .def_66 () Bool (not |.x{62}|))
(define-fun .def_206 () Bool (or .def_66 .def_205))
(define-fun .def_203 () Bool (or .def_35 .def_202))
(define-fun .def_199 () Bool (= .def_18 |.x{74}|))
(define-fun .def_200 () Bool (or .def_66 .def_199))
(define-fun .def_196 () Bool (= |.x{111}| |.x{67}|))
(define-fun .def_197 () Bool (or .def_35 .def_196))
(define-fun .def_191 () Int (* (- 1) |.x{65}|))
(define-fun .def_192 () Int (+ .def_16 .def_191))
(define-fun .def_193 () Bool (= .def_192 (- 1)))
(define-fun .def_194 () Bool (or .def_66 .def_193))
(define-fun .def_186 () Int (* (- 1) |.y{8}|))
(define-fun .def_187 () Int (+ .def_8 .def_186))
(define-fun .def_188 () Bool (= .def_187 (- 1)))
(define-fun .def_56 () Bool (not |.x{53}|))
(define-fun .def_46 () Bool (and |.x{54}| |.x{53}|))
(define-fun .def_184 () Bool (or .def_46 .def_56))
(define-fun .def_180 () (Array Int Int) (store .def_14 |.x{63}| |.x{57}|))
(define-fun .def_181 () Bool (= |.x{64}| .def_180))
(define-fun .def_182 () Bool (or .def_66 .def_181))
(define-fun .def_171 () Bool (<= .def_20 0))
(define-fun .def_177 () Bool (not .def_171))
(define-fun .def_178 () Bool (or .def_66 .def_177))
(define-fun .def_172 () Bool (<= |.x{63}| 0))
(define-fun .def_173 () Bool (not .def_172))
(define-fun .def_174 () Bool (or .def_171 .def_173))
(define-fun .def_175 () Bool (or .def_66 .def_174))
(define-fun .def_165 () Int (* (- 1) |.x{63}|))
(define-fun .def_166 () Int (+ .def_20 .def_165))
(define-fun .def_167 () Int (+ .def_16 .def_166))
(define-fun .def_168 () Bool (= .def_167 0))
(define-fun .def_169 () Bool (or .def_66 .def_168))
(define-fun .def_154 () Int (* (- 1) |.x{61}|))
(define-fun .def_155 () Int (+ .def_18 .def_154))
(define-fun .def_156 () Bool (= .def_155 (- 1)))
(define-fun .def_157 () Bool (or .def_35 .def_156))
(define-fun .def_145 () (Array Int Int) (store .def_12 |.x{59}| |.x{57}|))
(define-fun .def_146 () Bool (= |.x{60}| .def_145))
(define-fun .def_147 () Bool (or .def_35 .def_146))
(define-fun .def_143 () Bool (= .def_26 |.y{13}|))
(define-fun .def_24 () Int (! |.x{102}| :next |.y{12}|))
(define-fun .def_141 () Bool (= .def_24 |.y{12}|))
(define-fun .def_22 () Int (! |.x{101}| :next |.y{11}|))
(define-fun .def_114 () Bool (<= .def_22 0))
(define-fun .def_138 () Bool (not .def_114))
(define-fun .def_139 () Bool (or .def_35 .def_138))
(define-fun .def_133 () Bool (<= |.x{57}| (- 1)))
(define-fun .def_134 () Bool (not .def_133))
(define-fun .def_135 () Bool (= |.x{56}| .def_134))
(define-fun .def_136 () Bool (or .def_56 .def_135))
(define-fun .def_129 () Bool (= |.x{73}| |.x{65}|))
(define-fun .def_130 () Bool (or .def_66 .def_129))
(define-fun .def_126 () Bool (= .def_22 |.y{11}|))
(define-fun .def_121 () Bool (= |.x{72}| |.x{64}|))
(define-fun .def_122 () Bool (or .def_66 .def_121))
(define-fun .def_115 () Bool (<= |.x{59}| 0))
(define-fun .def_116 () Bool (not .def_115))
(define-fun .def_117 () Bool (or .def_114 .def_116))
(define-fun .def_118 () Bool (or .def_35 .def_117))
(define-fun .def_112 () Bool (= .def_20 |.x{110}|))
(define-fun .def_109 () Bool (= |.x{113}| |.x{74}|))
(define-fun .def_110 () Bool (or .def_66 .def_109))
(define-fun .def_105 () Bool (= |.x{70}| |.x{61}|))
(define-fun .def_106 () Bool (or .def_35 .def_105))
(define-fun .def_98 () Int (* (- 1) |.x{59}|))
(define-fun .def_99 () Int (+ .def_22 .def_98))
(define-fun .def_100 () Int (+ .def_18 .def_99))
(define-fun .def_101 () Bool (= .def_100 0))
(define-fun .def_102 () Bool (or .def_35 .def_101))
(define-fun .def_88 () Bool (= |.x{112}| |.x{73}|))
(define-fun .def_89 () Bool (or .def_66 .def_88))
(define-fun .def_71 () Bool (and |.x{53}| |.x{62}|))
(define-fun .def_83 () Bool (not .def_71))
(define-fun .def_85 () Bool (or .def_83 |.x{56}|))
(define-fun .def_80 () Bool (= |.y{10}| |.x{72}|))
(define-fun .def_81 () Bool (or .def_66 .def_80))
(define-fun .def_76 () Bool (= |.x{67}| |.x{60}|))
(define-fun .def_77 () Bool (or .def_35 .def_76))
(define-fun .def_72 () Bool (or .def_66 .def_71))
(define-fun .def_69 () Bool (or |.x{58}| |.x{62}|))
(define-fun .def_64 () Bool (= |.x{111}| |.x{71}|))
(define-fun .def_67 () Bool (or .def_64 .def_66))
(define-fun .def_60 () Bool (= |.x{113}| |.x{70}|))
(define-fun .def_61 () Bool (or .def_35 .def_60))
(define-fun .def_55 () Bool (= .def_24 |.x{121}|))
(define-fun .def_57 () Bool (or .def_55 .def_56))
(define-fun .def_51 () Bool (= |.x{112}| |.x{69}|))
(define-fun .def_52 () Bool (or .def_35 .def_51))
(define-fun .def_47 () Bool (not .def_46))
(define-fun .def_43 () Bool (not .def_42))
(define-fun .def_48 () Bool (or .def_43 .def_47))
(define-fun .def_33 () Bool (= |.y{10}| |.x{68}|))
(define-fun .def_36 () Bool (or .def_33 .def_35))
(define-fun .def_49 () Bool (and .def_36 .def_48))
(define-fun .def_53 () Bool (and .def_49 .def_52))
(define-fun .def_58 () Bool (and .def_53 .def_57))
(define-fun .def_62 () Bool (and .def_58 .def_61))
(define-fun .def_68 () Bool (and .def_62 .def_67))
(define-fun .def_70 () Bool (and .def_68 .def_69))
(define-fun .def_73 () Bool (and .def_70 .def_72))
(define-fun .def_78 () Bool (and .def_73 .def_77))
(define-fun .def_82 () Bool (and .def_78 .def_81))
(define-fun .def_86 () Bool (and .def_82 .def_85))
(define-fun .def_90 () Bool (and .def_86 .def_89))
(define-fun .def_103 () Bool (and .def_90 .def_102))
(define-fun .def_107 () Bool (and .def_103 .def_106))
(define-fun .def_111 () Bool (and .def_107 .def_110))
(define-fun .def_113 () Bool (and .def_111 .def_112))
(define-fun .def_119 () Bool (and .def_113 .def_118))
(define-fun .def_123 () Bool (and .def_119 .def_122))
(define-fun .def_125 () Bool (and .def_123 .def_124))
(define-fun .def_127 () Bool (and .def_125 .def_126))
(define-fun .def_131 () Bool (and .def_127 .def_130))
(define-fun .def_137 () Bool (and .def_131 .def_136))
(define-fun .def_140 () Bool (and .def_137 .def_139))
(define-fun .def_142 () Bool (and .def_140 .def_141))
(define-fun .def_144 () Bool (and .def_142 .def_143))
(define-fun .def_148 () Bool (and .def_144 .def_147))
(define-fun .def_149 () Bool (and .def_28 .def_148))
(define-fun .def_151 () Bool (and .def_149 .def_150))
(define-fun .def_158 () Bool (and .def_151 .def_157))
(define-fun .def_159 () Bool (and |.loc{5}| .def_158))
(define-fun .def_170 () Bool (and .def_159 .def_169))
(define-fun .def_176 () Bool (and .def_170 .def_175))
(define-fun .def_179 () Bool (and .def_176 .def_178))
(define-fun .def_183 () Bool (and .def_179 .def_182))
(define-fun .def_185 () Bool (and .def_183 .def_184))
(define-fun .def_189 () Bool (and .def_185 .def_188))
(define-fun .def_195 () Bool (and .def_189 .def_194))
(define-fun .def_198 () Bool (and .def_195 .def_197))
(define-fun .def_201 () Bool (and .def_198 .def_200))
(define-fun .def_204 () Bool (and .def_201 .def_203))
(define-fun .def_207 () Bool (and .def_204 .def_206))
(define-fun .def_211 () Bool (and .def_207 .def_210))
(define-fun .def_214 () Bool (and .def_211 .def_213))
(define-fun .def_217 () Bool (and .def_214 .def_216))
(define-fun .def_283 () Bool (! (or .def_217 .def_282) :trans true))
(define-fun .def_285 () Int (! |.x{139}| :next |.xpv{1}|))
(define-fun .def_10 () Int (! |.y{7}| :next |.y{9}|))
(define-fun .def_299 () Bool (and .def_30 .def_232))
(define-fun .def_296 () Int (select .def_12 .def_285))
(define-fun .def_297 () Bool (<= .def_296 (- 1)))
(define-fun .def_289 () Int (* (- 1) .def_285))
(define-fun .def_290 () Int (+ .def_20 .def_289))
(define-fun .def_291 () Int (+ .def_18 .def_290))
(define-fun .def_292 () Bool (= .def_291 0))
(define-fun .def_293 () Bool (and .def_253 .def_292))
(define-fun .def_286 () Bool (<= .def_285 0))
(define-fun .def_287 () Bool (not .def_286))
(define-fun .def_288 () Bool (or .def_260 .def_287))
(define-fun .def_294 () Bool (and .def_288 .def_293))
(define-fun .def_295 () Bool (and .def_265 .def_294))
(define-fun .def_298 () Bool (and .def_295 .def_297))
(define-fun .def_300 () Bool (and .def_298 .def_299))
(define-fun .def_302 () Bool (! (not .def_300) :invar-property 0))
(assert true)
